# Solution for model r3_t36_m6_9 Batch Number: 5
# Finished Task: 25 / 36
# Makespan: 1055.0, Total Distance: 907.0, Total Time: 2.2245
# R O S F Batch
0 0 6 0.0 0.0 -1
1 1 17 0.0 0.0 -1
2 2 14 0.0 0.0 -1
3 -1 -1 -1.0 -1.0 2
4 -1 -1 -1.0 -1.0 2
5 2 16 632.0 661.0 0
6 0 22 341.0 365.0 0
7 0 30 636.0 660.0 0
8 1 -1 1030.0 1055.0 4
9 0 7 556.0 581.0 0
10 -1 -1 -1.0 -1.0 2
11 -1 -1 -1.0 -1.0 2
12 2 31 793.0 829.0 1
13 -1 -1 -1.0 -1.0 2
14 2 15 500.0 539.0 0
15 2 5 580.0 614.0 0
16 2 12 687.0 717.0 0
17 1 32 519.0 548.0 0
18 2 38 907.0 944.0 3
19 1 33 784.0 808.0 3
20 -1 -1 -1.0 -1.0 3
21 -1 -1 -1.0 -1.0 4
22 0 24 408.0 446.0 0
23 -1 -1 -1.0 -1.0 3
24 0 9 486.0 514.0 0
25 0 37 962.0 988.0 4
26 0 36 771.0 805.0 4
27 -1 -1 -1.0 -1.0 3
28 0 26 711.0 747.0 1
29 -1 -1 -1.0 -1.0 4
30 0 28 677.0 699.0 1
31 2 18 862.0 893.0 2
32 1 34 631.0 658.0 1
33 1 8 944.0 980.0 3
34 1 19 707.0 733.0 1
35 -1 -1 -1.0 -1.0 3
36 0 25 893.0 915.0 4
37 0 -1 1021.0 1055.0 4
38 2 -1 1023.0 1048.0 4
